sat
(:added-eqs                  15
 :arith-eq-adapter           6
 :arith-conflicts            1
 :arith-diseq                2
 :arith-grobner-calls        1
 :arith-lower                20
 :arith-make-feasible        7
 :arith-max-columns          177
 :arith-max-rows             33
 :arith-nla-add-bounds       3
 :arith-nla-propagate-bounds 1
 :arith-nla-propagate-eq     8
 :arith-upper                41
 :binary-propagations        62
 :decisions                  20
 :final-checks               5
 :max-memory                 51.66
 :memory                     17.65
 :mk-bool-var                116
 :mk-clause                  20
 :mk-clause-binary           335
 :num-allocs                 630451
 :num-checks                 1
 :propagations               66
 :rlimit-count               14794
 :sls-arith-steps            47
 :sls-ddfw-flips             53.00
 :sls-ddfw-shifts            1.00
 :sls-num-guided-search      1
 :sls-repair-down            17
 :sls-repair-up              34
 :solve-eqs-elim-vars        13
 :solve-eqs-steps            302
 :time                       0.02
 :total-time                 0.02)
